Version identifier: 20.1.0.0 | 2020-11-10 | 9bedb6d68
Tried aggregator 2 times.
MIP Presolve eliminated 1255 rows and 680 columns.
MIP Presolve modified 3192 coefficients.
Aggregator did 148 substitutions.
Reduced MIP has 1806 rows, 1387 columns, and 5940 nonzeros.
Reduced MIP has 244 binaries, 1143 generals, 0 SOSs, and 0 indicators.
Presolve time = 0.02 sec. (7.12 ticks)
Found incumbent of value 2716.000000 after 0.03 sec. (14.43 ticks)
Probing fixed 40 vars, tightened 469 bounds.
Probing time = 0.00 sec. (1.23 ticks)
Tried aggregator 1 time.
Detecting symmetries...
MIP Presolve eliminated 780 rows and 40 columns.
MIP Presolve modified 97 coefficients.
Reduced MIP has 1026 rows, 1347 columns, and 3360 nonzeros.
Reduced MIP has 378 binaries, 969 generals, 0 SOSs, and 0 indicators.
Presolve time = 0.01 sec. (3.67 ticks)
Probing time = 0.00 sec. (0.26 ticks)
Clique table members: 5.
MIP emphasis: balance optimality and feasibility.
MIP search method: dynamic search.
Parallel mode: deterministic, using up to 24 threads.
Root relaxation solution time = 0.01 sec. (3.91 ticks)

        Nodes                                         Cuts/
   Node  Left     Objective  IInf  Best Integer    Best Bound    ItCnt     Gap

*     0+    0                         2716.0000        0.0000           100.00%
      0     0        0.0000    63     2716.0000        0.0000      344  100.00%
*     0+    0                           23.0000        0.0000           100.00%
      0     0        0.0000   109       23.0000     Cuts: 168      442  100.00%
      0     0        0.0000    67       23.0000      Cuts: 94      531  100.00%
      0     0        0.0000    44       23.0000      Cuts: 79      802  100.00%
      0     0        0.0971   285       23.0000      Cuts: 61     1044   99.58%
      0     0        0.3026   289       23.0000      Cuts: 90     1139   98.68%
*     0+    0                           11.0000        0.3026            97.25%
      0     0        cutoff             11.0000       11.0000     1225    0.00%
Elapsed time = 0.67 sec. (103.27 ticks, tree = 0.01 MB, solutions = 3)

Implied bound cuts applied:  57
Flow cuts applied:  10
Mixed integer rounding cuts applied:  28
Zero-half cuts applied:  130
Lift and project cuts applied:  6
Gomory fractional cuts applied:  22

Root node processing (before b&c):
  Real time             =    0.67 sec. (103.39 ticks)
Parallel b&c, 24 threads:
  Real time             =    0.00 sec. (0.00 ticks)
  Sync time (average)   =    0.00 sec.
  Wait time (average)   =    0.00 sec.
                          ------------
Total (root+branch&cut) =    0.67 sec. (103.39 ticks)

Solution status = Optimal
Solution LB = 11
Solution UB = 11
Runtime = 0.67018 seconds
	Command being timed: "/home/min/git_repos/CS598MEBProject/CNT-ILP/build/cnt -s 2 ./output/k8_n20/simC_c1_k8_n20_u1_s2_del02.input-right.cnp"
	User time (seconds): 10.79
	System time (seconds): 0.06
	Percent of CPU this job got: 1551%
	Elapsed (wall clock) time (h:mm:ss or m:ss): 0:00.70
	Average shared text size (kbytes): 0
	Average unshared data size (kbytes): 0
	Average stack size (kbytes): 0
	Average total size (kbytes): 0
	Maximum resident set size (kbytes): 97628
	Average resident set size (kbytes): 0
	Major (requiring I/O) page faults: 0
	Minor (reclaiming a frame) page faults: 21493
	Voluntary context switches: 5079
	Involuntary context switches: 1788
	Swaps: 0
	File system inputs: 0
	File system outputs: 16
	Socket messages sent: 0
	Socket messages received: 0
	Signals delivered: 0
	Page size (bytes): 4096
	Exit status: 0
